  Job Started  at 18:27.45 22nd July       2012

  Number of CPUs =     1

  Host name      = gilgamesh.cheme.cmu.edu

  Total number of configurations input =   1

*  Input for Configuration =   1                                               *

  Formula = Ar48

  Number of irreducible atoms/shells =      48

  Total number atoms/shells =      48

  Dimensionality = 3               :  Bulk

  Cartesian lattice vectors (Angstroms) :

       63.779600    0.000000    0.000000
        0.000000    5.315000    0.000000
        0.000000    0.000000    5.315000

  Cell parameters (Angstroms/Degrees):

  a =      63.7796    alpha =  90.0000
  b =       5.3150    beta  =  90.0000
  c =       5.3150    gamma =  90.0000

  Initial cell volume =        1801.724271 Angs**3

  Temperature of configuration =  0.000     K

  Pressure of configuration =         0.000 GPa

  Fractional coordinates of asymmetric unit :

   No.  Atomic       x           y          z         Charge      Occupancy
        Label      (Frac)      (Frac)     (Frac)        (e)         (Frac)
      1 Ar1   c    0.000000    0.000000    0.000000     0.00000    1.000000
      2 Ar1   c    0.041667    0.499997    0.000000     0.00000    1.000000
      3 Ar1   c    0.041667    0.000000    0.499997     0.00000    1.000000
      4 Ar1   c    0.000000    0.499997    0.499997     0.00000    1.000000
      5 Ar1   c    0.083333    0.000000    0.000000     0.00000    1.000000
      6 Ar1   c    0.125000    0.499997    0.000000     0.00000    1.000000
      7 Ar1   c    0.125000    0.000000    0.499997     0.00000    1.000000
      8 Ar1   c    0.083333    0.499997    0.499997     0.00000    1.000000
      9 Ar1   c    0.166667    0.000000    0.000000     0.00000    1.000000
     10 Ar1   c    0.208333    0.499997    0.000000     0.00000    1.000000
     11 Ar1   c    0.208333    0.000000    0.499997     0.00000    1.000000
     12 Ar1   c    0.166667    0.499997    0.499997     0.00000    1.000000
     13 Ar1   c    0.250000    0.000000    0.000000     0.00000    1.000000
     14 Ar1   c    0.291667    0.499997    0.000000     0.00000    1.000000
     15 Ar1   c    0.291667    0.000000    0.499997     0.00000    1.000000
     16 Ar1   c    0.250000    0.499997    0.499997     0.00000    1.000000
     17 Ar1   c    0.333333    0.000000    0.000000     0.00000    1.000000
     18 Ar1   c    0.375000    0.499997    0.000000     0.00000    1.000000
     19 Ar1   c    0.375000    0.000000    0.499997     0.00000    1.000000
     20 Ar1   c    0.333333    0.499997    0.499997     0.00000    1.000000
     21 Ar1   c    0.416667    0.000000    0.000000     0.00000    1.000000
     22 Ar1   c    0.458333    0.499997    0.000000     0.00000    1.000000
     23 Ar1   c    0.458333    0.000000    0.499997     0.00000    1.000000
     24 Ar1   c    0.416667    0.499997    0.499997     0.00000    1.000000
     25 Ar2   c    0.500000    0.000000    0.000000     0.00000    1.000000
     26 Ar2   c    0.541667    0.499997    0.000000     0.00000    1.000000
     27 Ar2   c    0.541667    0.000000    0.499997     0.00000    1.000000
     28 Ar2   c    0.500000    0.499997    0.499997     0.00000    1.000000
     29 Ar2   c    0.583333    0.000000    0.000000     0.00000    1.000000
     30 Ar2   c    0.625000    0.499997    0.000000     0.00000    1.000000
     31 Ar2   c    0.625000    0.000000    0.499997     0.00000    1.000000
     32 Ar2   c    0.583333    0.499997    0.499997     0.00000    1.000000
     33 Ar2   c    0.666666    0.000000    0.000000     0.00000    1.000000
     34 Ar2   c    0.708333    0.499997    0.000000     0.00000    1.000000
     35 Ar2   c    0.708333    0.000000    0.499997     0.00000    1.000000
     36 Ar2   c    0.666666    0.499997    0.499997     0.00000    1.000000
     37 Ar2   c    0.750000    0.000000    0.000000     0.00000    1.000000
     38 Ar2   c    0.791666    0.499997    0.000000     0.00000    1.000000
     39 Ar2   c    0.791666    0.000000    0.499997     0.00000    1.000000
     40 Ar2   c    0.750000    0.499997    0.499997     0.00000    1.000000
     41 Ar2   c    0.833333    0.000000    0.000000     0.00000    1.000000
     42 Ar2   c    0.875000    0.499997    0.000000     0.00000    1.000000
     43 Ar2   c    0.875000    0.000000    0.499997     0.00000    1.000000
     44 Ar2   c    0.833333    0.499997    0.499997     0.00000    1.000000
     45 Ar2   c    0.916666    0.000000    0.000000     0.00000    1.000000
     46 Ar2   c    0.958333    0.499997    0.000000     0.00000    1.000000
     47 Ar2   c    0.958333    0.000000    0.499997     0.00000    1.000000
     48 Ar2   c    0.916666    0.499997    0.499997     0.00000    1.000000

  Brillouin zone sampling points :

  Point number          x          y          z            Weight
        1           0.500000   0.500000   0.499900         1.0000

*  General input information                                                   *

  Species output for all configurations :

  Species    Type    Atomic    Atomic    Charge       Radii (Angs)     Library
                     Number     Mass       (e)     Cova   Ionic  VDW   Symbol
    Ar1      Core       18      39.95   0.000000   0.000  0.000  0.000
    Ar2      Core       18     119.84   0.000000   0.000  0.000  0.000

  Lattice summation method               =    Ewald          (3-D)
                                         =    Parry          (2-D)
                                         =    Saunders et al (1-D)
  Accuracy factor for lattice sums       =   12.000

  Time limit = Infinity

  Maximum range for interatomic potentials =    100000.000000 Angstroms

  General interatomic potentials :

Atom  Types   Potential         A         B         C         D     Cutoffs(Ang)
  1     2                                                            Min    Max
Ar1  c Ar1  c Lennard 12  6 0.995E+05  64.4      0.00      0.00     0.000  8.500
Ar2  c Ar2  c Lennard 12  6 0.995E+05  64.4      0.00      0.00     0.000  8.500
Ar1  c Ar2  c Lennard 12  6 0.995E+05  64.4      0.00      0.00     0.000  8.500

*  Output for configuration   1                                                *

  Components of energy :

  Interatomic potentials     =          -4.04177973 eV
  Monopole - monopole (real) =           0.00000000 eV
  Monopole - monopole (recip)=           0.00000000 eV
  Monopole - monopole (total)=           0.00000000 eV
  Total lattice energy       =          -4.04177973 eV
  Total lattice energy       =            -389.9700 kJ/(mole unit cells)

  Elastic Constant Matrix: (Units=GPa)

  Indices      1         2         3         4         5         6
       1      3.4833    1.9414    1.9414    0.0000    0.0000    0.0000
       2      1.9414    3.4833    1.9413    0.0000    0.0000    0.0000
       3      1.9414    1.9413    3.4833    0.0000    0.0000    0.0000
       4      0.0000    0.0000    0.0000    2.0113    0.0000    0.0000
       5      0.0000    0.0000    0.0000    0.0000    2.0114    0.0000
       6      0.0000    0.0000    0.0000    0.0000    0.0000    2.0114

  Elastic Compliance Matrix: (Units=1/GPa)

  Indices      1         2         3         4         5         6
       1    0.477625 -0.170937 -0.170937  0.000000  0.000000  0.000000
       2   -0.170937  0.477600 -0.170900  0.000000  0.000000  0.000000
       3   -0.170937 -0.170900  0.477600  0.000000  0.000000  0.000000
       4    0.000000  0.000000  0.000000  0.497197  0.000000  0.000000
       5    0.000000  0.000000  0.000000  0.000000  0.497168  0.000000
       6    0.000000  0.000000  0.000000  0.000000  0.000000  0.497168

  Mechanical properties :

  Convention :                    Reuss         Voigt         Hill
  Bulk  Modulus (GPa)     =       2.45533       2.45533       2.45533
  Shear Modulus (GPa)     =       1.22379       1.51520       1.36950
  Velocity S-wave (km/s)  =       0.58842       0.65474       0.62246
  Velocity P-wave (km/s)  =       1.07532       1.12528       1.10058
  Compressibility (1/GPa) =    0.40727655
  Stress axis :                     x             y             z
  Youngs Moduli (GPa)     =       2.09369       2.09380       2.09380
  Poissons Ratio (x)      =                     0.35791       0.35791
  Poissons Ratio (y)      =       0.35789                     0.35783
  Poissons Ratio (z)      =       0.35789       0.35783

  Piezoelectric Strain Matrix: (Units=C/m**2)

  Indices      1         2         3         4         5         6
       x     0.00000   0.00000   0.00000   0.00000   0.00000   0.00000
       y     0.00000   0.00000   0.00000   0.00000   0.00000   0.00000
       z     0.00000   0.00000   0.00000   0.00000   0.00000   0.00000

  Piezoelectric Stress Matrix: (Units=10**-11 C/N)

  Indices      1         2         3         4         5         6
       x     0.00000   0.00000   0.00000   0.00000   0.00000   0.00000
       y     0.00000   0.00000   0.00000   0.00000   0.00000   0.00000
       z     0.00000   0.00000   0.00000   0.00000   0.00000   0.00000

  Static dielectric constant tensor :

              x         y         z
       x     1.00000   0.00000   0.00000
       y     0.00000   1.00000   0.00000
       z     0.00000   0.00000   1.00000

  Static refractive indices :

    1 =    1.00000      2 =    1.00000      3 =    1.00000

  Phonon Calculation :

  Number of k points for this configuration =        1

  K point      1 =   0.500000  0.500000  0.499900  Weight =    1.000

 Frequencies (cm-1) and Eigenvectors :

 Frequency      16.2414             16.2419             16.2441
 IR Intensity    0.0000              0.0000              0.0000
    in X         0.0000              0.0000              0.0000
    in Y         0.0000              0.0000              0.0000
    in Z         0.0000              0.0000              0.0000
 Raman Intsty    0.0000              0.0000              0.0000

                Real    Imaginary   Real    Imaginary   Real    Imaginary

     1 x       0.000000  0.000000  0.000000  0.000000  0.000000  0.000000
     1 y      -0.000056 -0.000015 -0.000052 -0.000014 -0.000015 -0.000004
     1 z      -0.000003  0.000058  0.000003 -0.000054  0.000001 -0.000015
     2 x       0.000000  0.000000  0.000000  0.000000  0.000000  0.000000
     2 y       0.000016 -0.000039 -0.000017  0.000040  0.000026 -0.000062
     2 z       0.000041  0.000008  0.000043  0.000008 -0.000065 -0.000013
     3 x       0.000000  0.000000  0.000000  0.000000  0.000000  0.000000
     3 y      -0.000041 -0.000008 -0.000043 -0.000008  0.000065  0.000013
     3 z      -0.000016  0.000039  0.000017 -0.000040 -0.000025  0.000062
     4 x       0.000000  0.000000  0.000000  0.000000  0.000000  0.000000
     4 y       0.000003 -0.000057 -0.000003  0.000054 -0.000001  0.000016
     4 z       0.000056  0.000015  0.000053  0.000014  0.000015  0.000004
     5 x       0.000000  0.000000  0.000000  0.000000  0.000000  0.000000
     5 y       0.000000  0.000000  0.000000  0.000000  0.000000  0.000000
     5 z       0.000000  0.000000  0.000000  0.000000  0.000000  0.000000
     6 x       0.000000  0.000000  0.000000  0.000000  0.000000  0.000000
[...]
    26 x      -0.000010 -0.000004 -0.000014 -0.000005  0.000008  0.000003
    26 y      -0.082975 -0.034372  0.081542  0.033778 -0.036005 -0.014912
    26 z       0.017036 -0.088201  0.016744 -0.086686 -0.007382  0.038226
    27 x       0.000003 -0.000011 -0.000004  0.000014  0.000002 -0.000008
    27 y      -0.017031  0.088183 -0.016738  0.086660  0.007391 -0.038264
    27 z       0.082993  0.034378 -0.081567 -0.033787  0.035969  0.014899
    28 x      -0.000009 -0.000001 -0.000013 -0.000001 -0.000018 -0.000002
    28 y      -0.071926 -0.004313  0.073971  0.004437  0.113400  0.006797
    28 z       0.018649 -0.069601  0.019179 -0.071579  0.029404 -0.109734
    29 x       0.000000  0.000001  0.000001 -0.000002  0.000002 -0.000004
    29 y      -0.068999  0.119501 -0.069780  0.120855 -0.093145  0.161325
    29 z       0.130933  0.043638 -0.132423 -0.044137 -0.176713 -0.058891
    30 x       0.000002  0.000001  0.000002  0.000002  0.000000  0.000000
    30 y      -0.123419 -0.094707  0.122275  0.093829 -0.076101 -0.058393
    30 z       0.068038 -0.139921  0.067411 -0.138629 -0.041933  0.086238
    31 x      -0.000001  0.000002  0.000001 -0.000003  0.000000  0.000000
    31 y      -0.068029  0.139906 -0.067400  0.138608  0.041947 -0.086264
    31 z       0.123433  0.094717 -0.122294 -0.093842  0.076076  0.058376
    32 x       0.000001  0.000000  0.000002  0.000001  0.000004  0.000002
    32 y      -0.130913 -0.043627  0.132395  0.044123  0.176729  0.058894
    32 z       0.069007 -0.119523  0.069792 -0.120884  0.093134 -0.161312
    33 x       0.000004 -0.000005 -0.000006  0.000007 -0.000004  0.000004
    33 y      -0.127354  0.127346 -0.127568  0.127562 -0.141386  0.141381
    33 z       0.150316  0.099237 -0.150573 -0.099410 -0.166850 -0.110148
    34 x      -0.000004 -0.000005 -0.000005 -0.000006  0.000007  0.000009
    34 y      -0.114127 -0.148741  0.113804  0.148319 -0.096131 -0.125279
    34 z       0.122850 -0.141663  0.122511 -0.141268 -0.103428  0.119271
    35 x       0.000004 -0.000004 -0.000006  0.000006  0.000008 -0.000008
    35 y      -0.122828  0.141641 -0.122482  0.141238  0.103457 -0.119301
    35 z       0.114148  0.148764 -0.113831 -0.148351  0.096104  0.125248
    36 x      -0.000005 -0.000004 -0.000007 -0.000005 -0.000005 -0.000003
    36 y      -0.150303 -0.099223  0.150555  0.099392  0.166866  0.110155
    36 z       0.127364 -0.127363  0.127583 -0.127583  0.141371 -0.141371
    37 x      -0.000005  0.000003  0.000007 -0.000004  0.000009 -0.000006
    37 y      -0.162175  0.093625 -0.161359  0.093154 -0.140706  0.081235
    37 z       0.124268  0.140126 -0.123649 -0.139431 -0.107776 -0.121525
    38 x       0.000003  0.000006  0.000004  0.000008 -0.000003 -0.000006
    38 y      -0.069381 -0.167510  0.069689  0.168252 -0.075616 -0.182556
    38 z       0.150208 -0.101577  0.150879 -0.102028 -0.163666  0.110682
    39 x      -0.000006  0.000003  0.000008 -0.000005 -0.000005  0.000003
    39 y      -0.150192  0.101568 -0.150858  0.102015  0.163682 -0.110692
    39 z       0.069389  0.167527 -0.069699 -0.168275  0.075608  0.182539
    40 x       0.000004  0.000005  0.000005  0.000006  0.000007  0.000009
    40 y      -0.124252 -0.140099  0.123625  0.139396  0.107804  0.121555
    40 z       0.162199 -0.093645  0.161393 -0.093180  0.140670 -0.081216
    41 x       0.000002 -0.000001 -0.000003  0.000001  0.000001  0.000000
    41 y      -0.150754  0.040390 -0.149044  0.039932 -0.096696  0.025910
    41 z       0.069811  0.139607 -0.069021 -0.138030 -0.044761 -0.089510
    42 x       0.000000 -0.000001  0.000000 -0.000002  0.000001  0.000006
    42 y      -0.018309 -0.139096  0.018588  0.141204 -0.024545 -0.186449
    42 z       0.132620 -0.045841  0.134638 -0.046536 -0.177722  0.061435
    43 x       0.000001  0.000000 -0.000002  0.000001  0.000006 -0.000002
    43 y      -0.132598  0.045835 -0.134608  0.046528  0.177738 -0.061440
    43 z       0.018314  0.139119 -0.018593 -0.141235  0.024542  0.186432
    44 x      -0.000001 -0.000002 -0.000001 -0.000003  0.000000  0.000001
    44 y      -0.069807 -0.139589  0.069014  0.138007  0.044775  0.089536
    44 z       0.150770 -0.040398  0.149066 -0.039942  0.096668 -0.025903
    45 x      -0.000011  0.000001  0.000015 -0.000001  0.000008  0.000000
    45 y      -0.090510 -0.000003 -0.088732 -0.000003 -0.041053  0.000001
    45 z       0.018153  0.088691 -0.017797 -0.086957 -0.008225 -0.040179
    46 x      -0.000001  0.000010 -0.000001  0.000013  0.000002 -0.000019
    46 y       0.009861 -0.074897 -0.010196  0.077442  0.015599 -0.118472
    46 z       0.075354 -0.005359  0.077914 -0.005540 -0.119194  0.008480
    47 x      -0.000010  0.000000  0.000013  0.000000 -0.000019  0.000000
    47 y      -0.075353  0.005359 -0.077913  0.005540  0.119193 -0.008480
    47 z      -0.009861  0.074898  0.010196 -0.077443 -0.015599  0.118472
    48 x       0.000001  0.000011  0.000002  0.000014  0.000001  0.000008
    48 y      -0.018152 -0.088671  0.017795  0.086930  0.008232  0.040219
    48 z       0.090530  0.000000  0.088760  0.000000  0.041012  0.000000

[...]

 Frequency      60.8377             60.8377             60.8377
 IR Intensity    0.0000              0.0000              0.0000
    in X         0.0000              0.0000              0.0000
    in Y         0.0000              0.0000              0.0000
    in Z         0.0000              0.0000              0.0000
 Raman Intsty    0.0000              0.0000              0.0000

                Real    Imaginary   Real    Imaginary   Real    Imaginary

     1 x       0.035921  0.009722 -0.039450 -0.010707 -0.038983 -0.010548
     1 y       0.042999  0.011520  0.039135  0.010489 -0.039702 -0.010641
     1 z       0.004340 -0.044299  0.004364 -0.040285  0.004001 -0.040911
     2 x       0.030845 -0.074475  0.028076 -0.067770 -0.028481  0.068747
     2 y       0.027404 -0.065680 -0.030157  0.072160 -0.029736  0.071309
     2 z       0.069363  0.015944 -0.076042 -0.018263  0.075292  0.017316
     3 x      -0.078514 -0.018264 -0.071274 -0.017352 -0.072481 -0.016846
     3 y       0.069359  0.015943 -0.076045 -0.018264  0.075295  0.017316
     3 z       0.027406 -0.065683 -0.030155  0.072156 -0.029735  0.071306
     4 x      -0.003533  0.037046  0.004274 -0.040653 -0.003834  0.040202
     4 y       0.004340 -0.044304  0.004363 -0.040281  0.003999 -0.040908
     4 z       0.042995  0.011519  0.039140  0.010490 -0.039705 -0.010641
     5 x      -0.086474 -0.050228  0.095024  0.055262  0.093918  0.054521
     5 y      -0.098134 -0.056650 -0.089261 -0.051548  0.090549  0.052293
     5 z      -0.039862  0.106065 -0.037244  0.096116 -0.036761  0.097892
     6 x      -0.083967  0.109449 -0.076382  0.099518  0.077485 -0.100953
     6 y      -0.076147  0.098695  0.083783 -0.108488  0.082685 -0.107239
     6 z      -0.110127 -0.058411  0.120451  0.065421 -0.119612 -0.063478
     7 x       0.121689  0.064971  0.110061  0.060204  0.112281  0.059904
     7 y      -0.110125 -0.058410  0.120453  0.065422 -0.119614 -0.063479
     7 z      -0.076149  0.098697  0.083781 -0.108486  0.082684 -0.107238
     8 x       0.034929 -0.093705 -0.039403  0.102620  0.037946 -0.101750
     8 y      -0.039861  0.106069 -0.037240  0.096114 -0.036758  0.097891
     8 z      -0.098133 -0.056646 -0.089265 -0.051548  0.090553  0.052292
     9 x       0.099030  0.099563 -0.108882 -0.109558 -0.107650 -0.108149
     9 y       0.110919  0.110895  0.100808  0.100842 -0.102264 -0.102299
     9 z       0.091304 -0.127530  0.084169 -0.115098  0.084161 -0.117645
    10 x       0.130551 -0.100205  0.118676 -0.091028 -0.120391  0.092343
    10 y       0.119519 -0.091197 -0.131544  0.100299 -0.129875  0.099188
    10 z       0.110062  0.102412 -0.119970 -0.113890  0.119599  0.111363
    11 x      -0.120163 -0.112451 -0.108176 -0.103287 -0.110827 -0.103627
    11 y       0.110062  0.102412 -0.119970 -0.113890  0.119599  0.111363
    11 z       0.119520 -0.091198 -0.131544  0.100299 -0.129874  0.099188
    12 x      -0.081425  0.114410  0.090809 -0.124948 -0.088515  0.124297
    12 y       0.091302 -0.127533  0.084166 -0.115098  0.084158 -0.117646
    12 z       0.110920  0.110891  0.100811  0.100841 -0.102267 -0.102298
    13 x      -0.074415 -0.129712  0.081864  0.142795  0.080985  0.141003
    13 y      -0.082746 -0.143268 -0.075126 -0.130190  0.076211  0.132073
    13 z      -0.127853  0.105007 -0.117100  0.094238 -0.117788  0.096836
    14 x      -0.142759  0.059166 -0.129679  0.053677  0.131556 -0.054453
    14 y      -0.131819  0.054174  0.145149 -0.059611  0.143347 -0.059004
    14 z      -0.075660 -0.120773  0.081956  0.133811 -0.082236 -0.131405
    15 x       0.081652  0.131201  0.072973  0.119887  0.075296  0.120842
    15 y      -0.075661 -0.120774  0.081956  0.133810 -0.082236 -0.131405
    15 z      -0.131817  0.054173  0.145150 -0.059612  0.143348 -0.059004
    16 x       0.115283 -0.095250 -0.127937  0.103558  0.125396 -0.103520
    16 y      -0.127850  0.105009 -0.117099  0.094241 -0.117787  0.096838
    16 z      -0.082749 -0.143267 -0.075129 -0.130188  0.076214  0.132071
    17 x       0.032100  0.121161 -0.035331 -0.133453 -0.035008 -0.131811
    17 y       0.035532  0.132494  0.032201  0.120313 -0.032666 -0.122054
    17 z       0.124932 -0.056655  0.113928 -0.050317  0.115037 -0.052250
    18 x       0.109099 -0.014391  0.099026 -0.013005 -0.100462  0.013193
    18 y       0.102112 -0.013150 -0.112500  0.014472 -0.111129  0.014385
    18 z       0.030219  0.098417 -0.032185 -0.108768  0.032831  0.107141
    19 x      -0.031976 -0.105296 -0.028086 -0.095847 -0.029507 -0.096933
    19 y       0.030220  0.098420 -0.032184 -0.108765  0.032830  0.107139
    19 z       0.102108 -0.013149 -0.112503  0.014472 -0.111131  0.014385
    20 x      -0.113994  0.052114  0.126130 -0.056119 -0.124063  0.056639
    20 y       0.124929 -0.056657  0.113929 -0.050321  0.115038 -0.052253
    20 z       0.035535  0.132496  0.032203  0.120309 -0.032668 -0.122051
    21 x       0.000211 -0.073241 -0.000238  0.080720 -0.000171  0.079744
    21 y      -0.000021 -0.078312  0.000024 -0.071058 -0.000026  0.072087
    21 z      -0.077266  0.012779 -0.070212  0.010910 -0.071110  0.011812
    22 x      -0.040601 -0.005332 -0.036821 -0.004862  0.037357  0.004934
    22 y      -0.040086 -0.005394  0.044187  0.005949  0.043660  0.005843
    22 z      -0.001462 -0.040416  0.001153  0.044575 -0.001564 -0.044024
    23 x       0.001349  0.040927  0.000866  0.037130  0.001273  0.037660
    23 y      -0.001462 -0.040421  0.001153  0.044571 -0.001564 -0.044021
    23 z      -0.040082 -0.005394  0.044191  0.005950  0.043663  0.005843
    24 x       0.072221 -0.012179 -0.079731  0.012603  0.078642 -0.013210
    24 y      -0.077262  0.012780 -0.070215  0.010912 -0.071113  0.011814
    24 z      -0.000022 -0.078316  0.000023 -0.071054 -0.000024  0.072084
    25 x      -0.001887  0.006960  0.002081 -0.007676  0.002049 -0.007585
    25 y      -0.001119  0.004181 -0.001018  0.003791  0.001032 -0.003846
    25 z       0.004309  0.000423  0.003902  0.000421  0.003963  0.000386
    26 x       0.000308  0.000127  0.000278  0.000116 -0.000283 -0.000117
    26 y       0.000466  0.000195 -0.000514 -0.000215 -0.000508 -0.000212
    26 z      -0.000113  0.000492  0.000130 -0.000542 -0.000123  0.000536
    27 x       0.000076 -0.000324  0.000071 -0.000293  0.000069 -0.000298
    27 y      -0.000113  0.000492  0.000130 -0.000542 -0.000123  0.000536
    27 z       0.000466  0.000195 -0.000514 -0.000215 -0.000508 -0.000212
    28 x      -0.007179 -0.000682  0.007909  0.000834 -0.007821 -0.000749
    28 y       0.004308  0.000423  0.003903  0.000421  0.003964  0.000386
    28 z      -0.001119  0.004182 -0.001017  0.003790  0.001032 -0.003845
    29 x       0.000024 -0.000040 -0.000026  0.000045 -0.000026  0.000044
    29 y       0.000014 -0.000025  0.000013 -0.000022 -0.000013  0.000023
    29 z      -0.000027 -0.000010 -0.000024 -0.000009 -0.000024 -0.000009
    30 x      -0.000002 -0.000002 -0.000002 -0.000002  0.000002  0.000002
    30 y      -0.000003 -0.000002  0.000003  0.000003  0.000003  0.000002
    30 z       0.000002 -0.000003 -0.000002  0.000004  0.000002 -0.000004
    31 x      -0.000001  0.000002 -0.000001  0.000002 -0.000001  0.000002
    31 y       0.000002 -0.000003 -0.000002  0.000004  0.000002 -0.000004
    31 z      -0.000003 -0.000002  0.000003  0.000003  0.000003  0.000002
    32 x       0.000044  0.000016 -0.000048 -0.000019  0.000048  0.000018
    32 y      -0.000027 -0.000010 -0.000024 -0.000009 -0.000024 -0.000009
    32 z       0.000014 -0.000025  0.000013 -0.000022 -0.000013  0.000023
    33 x       0.000000  0.000000  0.000000  0.000000  0.000000  0.000000
    33 y       0.000000  0.000000  0.000000  0.000000  0.000000  0.000000
    33 z       0.000000  0.000000  0.000000  0.000000  0.000000  0.000000
    34 x       0.000000  0.000000  0.000000  0.000000  0.000000  0.000000
    34 y       0.000000  0.000000  0.000000  0.000000  0.000000  0.000000
    34 z       0.000000  0.000000  0.000000  0.000000  0.000000  0.000000
    35 x       0.000000  0.000000  0.000000  0.000000  0.000000  0.000000
    35 y       0.000000  0.000000  0.000000  0.000000  0.000000  0.000000
    35 z       0.000000  0.000000  0.000000  0.000000  0.000000  0.000000
    36 x       0.000000  0.000000  0.000000  0.000000  0.000000  0.000000
    36 y       0.000000  0.000000  0.000000  0.000000  0.000000  0.000000
    36 z       0.000000  0.000000  0.000000  0.000000  0.000000  0.000000
    37 x       0.000000  0.000000  0.000000  0.000000  0.000000  0.000000
    37 y       0.000000  0.000000  0.000000  0.000000  0.000000  0.000000
    37 z       0.000000  0.000000  0.000000  0.000000  0.000000  0.000000
    38 x       0.000000  0.000000  0.000000  0.000000  0.000000  0.000000
    38 y       0.000000  0.000000  0.000000  0.000000  0.000000  0.000000
    38 z       0.000000  0.000000  0.000000  0.000000  0.000000  0.000000
    39 x       0.000000  0.000000  0.000000  0.000000  0.000000  0.000000
    39 y       0.000000  0.000000  0.000000  0.000000  0.000000  0.000000
    39 z       0.000000  0.000000  0.000000  0.000000  0.000000  0.000000
    40 x       0.000000  0.000000  0.000000  0.000000  0.000000  0.000000
    40 y       0.000000  0.000000  0.000000  0.000000  0.000000  0.000000
    40 z       0.000000  0.000000  0.000000  0.000000  0.000000  0.000000
    41 x       0.000002 -0.000001 -0.000003  0.000001 -0.000003  0.000001
    41 y       0.000004 -0.000001  0.000004 -0.000001 -0.000004  0.000001
    41 z      -0.000002 -0.000004 -0.000002 -0.000003 -0.000002 -0.000003
    42 x      -0.000007 -0.000051 -0.000006 -0.000047  0.000006  0.000047
    42 y      -0.000003 -0.000026  0.000004  0.000028  0.000004  0.000028
    42 z       0.000025 -0.000008 -0.000027  0.000008  0.000027 -0.000008
    43 x      -0.000049  0.000015 -0.000045  0.000013 -0.000046  0.000014
    43 y       0.000025 -0.000008 -0.000027  0.000008  0.000027 -0.000008
    43 z      -0.000003 -0.000026  0.000004  0.000028  0.000004  0.000028
    44 x       0.000001  0.000002 -0.000001 -0.000003  0.000001  0.000003
    44 y      -0.000002 -0.000004 -0.000002 -0.000003 -0.000002 -0.000003
    44 z       0.000004 -0.000001  0.000004 -0.000001 -0.000004  0.000001
    45 x      -0.000303 -0.000001  0.000332  0.000001  0.000328  0.000001
    45 y      -0.000556  0.000000 -0.000506  0.000000  0.000513  0.000000
    45 z       0.000091  0.000548  0.000078  0.000500  0.000084  0.000507
    46 x      -0.001036  0.007868 -0.000943  0.007165  0.000957 -0.007268
    46 y      -0.000523  0.003898  0.000578 -0.004282  0.000567 -0.004230
    46 z      -0.003932  0.000141  0.004318 -0.000113 -0.004264  0.000153
    47 x       0.007932 -0.000264  0.007225 -0.000166  0.007327 -0.000245
    47 y      -0.003931  0.000141  0.004319 -0.000113 -0.004265  0.000153
    47 z      -0.000523  0.003899  0.000577 -0.004280  0.000567 -0.004229
    48 x      -0.000050 -0.000298  0.000052  0.000328 -0.000054 -0.000323
    48 y       0.000091  0.000548  0.000078  0.000500  0.000084  0.000507
    48 z      -0.000556  0.000000 -0.000506  0.000000  0.000513  0.000000

  Phonon properties (per mole of unit cells): Temperature =      0.000 K
  Zero point energy            =        0.282869 eV

  Time to end of properties =       0.0940 seconds

  Timing analysis for GULP :

  Task / Subroutine                                          Time (Seconds)
  Calculation of real space energy and derivatives                0.0100
  Calculation of phonons                                          0.0790
  Calculation of scattering                                       0.0000

  Job Finished at 18:27.45 22nd July       2012